<?xml version = "1.0" standalone="yes"?>
<!-- This file has been generated by DOcplex version 2.23.222  -->
<CPLEXSolution version="1.0">
 <header
   problemName="CVRP"
   objectiveValue="18189.6"
  />
 <variables>
  <variable name="x_0_2" index="1" value="1.00000"/>
  <variable name="x_0_3" index="2" value="1.00000"/>
  <variable name="x_0_4" index="3" value="1.00000"/>
  <variable name="x_0_6" index="5" value="1.00000"/>
  <variable name="x_0_8" index="7" value="1.00000"/>
  <variable name="x_0_9" index="8" value="1.00000"/>
  <variable name="x_0_12" index="11" value="1.00000"/>
  <variable name="x_0_15" index="14" value="1.00000"/>
  <variable name="x_0_16" index="15" value="1.00000"/>
  <variable name="x_0_17" index="16" value="1.00000"/>
  <variable name="x_0_18" index="17" value="1.00000"/>
  <variable name="x_0_19" index="18" value="1.00000"/>
  <variable name="x_0_20" index="19" value="1.00000"/>
  <variable name="x_0_23" index="22" value="1.00000"/>
  <variable name="x_1_0" index="23" value="1.00000"/>
  <variable name="x_2_11" index="56" value="1.00000"/>
  <variable name="x_3_0" index="69" value="1.00000"/>
  <variable name="x_4_0" index="92" value="1.00000"/>
  <variable name="x_5_0" index="115" value="1.00000"/>
  <variable name="x_6_14" index="151" value="1.00000"/>
  <variable name="x_7_0" index="161" value="1.00000"/>
  <variable name="x_8_0" index="184" value="1.00000"/>
  <variable name="x_9_0" index="207" value="1.00000"/>
  <variable name="x_10_0" index="230" value="1.00000"/>
  <variable name="x_11_7" index="260" value="1.00000"/>
  <variable name="x_12_22" index="297" value="1.00000"/>
  <variable name="x_13_5" index="304" value="1.00000"/>
  <variable name="x_14_0" index="322" value="1.00000"/>
  <variable name="x_15_0" index="345" value="1.00000"/>
  <variable name="x_16_0" index="368" value="1.00000"/>
  <variable name="x_17_13" index="404" value="1.00000"/>
  <variable name="x_18_1" index="415" value="1.00000"/>
  <variable name="x_19_0" index="437" value="1.00000"/>
  <variable name="x_20_0" index="460" value="1.00000"/>
  <variable name="x_21_0" index="483" value="1.00000"/>
  <variable name="x_22_21" index="527" value="1.00000"/>
  <variable name="x_23_10" index="539" value="1.00000"/>
  <variable name="u_1" index="552" value="37.00000"/>
  <variable name="u_2" index="553" value="22.00000"/>
  <variable name="u_3" index="554" value="32.00000"/>
  <variable name="u_4" index="555" value="46.00000"/>
  <variable name="u_5" index="556" value="46.00000"/>
  <variable name="u_6" index="557" value="42.00000"/>
  <variable name="u_7" index="558" value="45.00000"/>
  <variable name="u_8" index="559" value="34.00000"/>
  <variable name="u_9" index="560" value="46.00000"/>
  <variable name="u_10" index="561" value="45.00000"/>
  <variable name="u_11" index="562" value="41.00000"/>
  <variable name="u_12" index="563" value="11.00000"/>
  <variable name="u_13" index="564" value="23.00000"/>
  <variable name="u_14" index="565" value="46.00000"/>
  <variable name="u_15" index="566" value="46.00000"/>
  <variable name="u_16" index="567" value="35.00000"/>
  <variable name="u_17" index="568" value="10.00000"/>
  <variable name="u_18" index="569" value="19.00000"/>
  <variable name="u_19" index="570" value="40.00000"/>
  <variable name="u_20" index="571" value="46.00000"/>
  <variable name="u_21" index="572" value="46.00000"/>
  <variable name="u_22" index="573" value="40.00000"/>
  <variable name="u_23" index="574" value="38.00000"/>
 </variables>
</CPLEXSolution>
